NAME          
ROWS
 N  OBJ
 L  c3
 L  c4
 L  c5
 L  c6
 L  c7
 G  c1
 G  c2
COLUMNS
    ss[1]     c1        1
    ss[1]     OBJ       1000
    ss[2]     c2        1
    ss[2]     OBJ       1000
    s[1]      c3        1
    s[1]      OBJ       -1000
    s[2]      c4        1
    s[2]      OBJ       -1000
    s[3]      c5        1
    s[3]      OBJ       -1000
    s[4]      c6        1
    s[4]      OBJ       -1000
    s[5]      c7        1
    s[5]      OBJ       -1000
    MARKER    'MARKER'                 'INTORG'
    x[1]      c3        884
    x[1]      c4        203
    x[1]      c5        330
    x[1]      c6        536
    x[1]      c7        959
    x[1]      c1        556
    x[1]      c2        413
    x[1]      OBJ       -1091
    x[2]      c3        667
    x[2]      c4        685
    x[2]      c5        574
    x[2]      c6        826
    x[2]      c7        48
    x[2]      c1        125
    x[2]      c2        794
    x[2]      OBJ       -1023
    x[3]      c3        13
    x[3]      c4        977
    x[3]      c5        440
    x[3]      c6        575
    x[3]      c7        262
    x[3]      c1        736
    x[3]      c2        494
    x[3]      OBJ       -878
    x[4]      c3        143
    x[4]      c4        28
    x[4]      c5        922
    x[4]      c6        44
    x[4]      c7        398
    x[4]      c1        557
    x[4]      c2        821
    x[4]      OBJ       -222
    x[5]      c3        333
    x[5]      c4        292
    x[5]      c5        341
    x[5]      c6        727
    x[5]      c7        847
    x[5]      c1        301
    x[5]      c2        348
    x[5]      OBJ       -1066
    x[6]      c3        464
    x[6]      c4        95
    x[6]      c5        701
    x[6]      c6        349
    x[6]      c7        828
    x[6]      c1        6
    x[6]      c2        961
    x[6]      OBJ       -1016
    x[7]      c3        938
    x[7]      c4        558
    x[7]      c5        979
    x[7]      c6        455
    x[7]      c7        624
    x[7]      c1        111
    x[7]      c2        63
    x[7]      OBJ       -1519
    x[8]      c3        225
    x[8]      c4        427
    x[8]      c5        974
    x[8]      c6        181
    x[8]      c7        807
    x[8]      c1        16
    x[8]      c2        962
    x[8]      OBJ       -983
    x[9]      c3        37
    x[9]      c4        542
    x[9]      c5        747
    x[9]      c6        668
    x[9]      c7        239
    x[9]      c1        704
    x[9]      c2        799
    x[9]      OBJ       -626
    x[10]     c3        193
    x[10]     c4        770
    x[10]     c5        47
    x[10]     c6        274
    x[10]     c7        504
    x[10]     c1        952
    x[10]     c2        242
    x[10]     OBJ       -760
    x[11]     c3        531
    x[11]     c4        669
    x[11]     c5        69
    x[11]     c6        999
    x[11]     c7        52
    x[11]     c1        408
    x[11]     c2        352
    x[11]     OBJ       -1105
    x[12]     c3        750
    x[12]     c4        14
    x[12]     c5        117
    x[12]     c6        225
    x[12]     c7        678
    x[12]     c1        492
    x[12]     c2        337
    x[12]     OBJ       -665
    x[13]     c3        933
    x[13]     c4        59
    x[13]     c5        523
    x[13]     c6        27
    x[13]     c7        770
    x[13]     c1        163
    x[13]     c2        111
    x[13]     OBJ       -1339
    x[14]     c3        385
    x[14]     c4        63
    x[14]     c5        913
    x[14]     c6        514
    x[14]     c7        443
    x[14]     c1        938
    x[14]     c2        559
    x[14]     OBJ       -642
    x[15]     c3        877
    x[15]     c4        520
    x[15]     c5        83
    x[15]     c6        740
    x[15]     c7        647
    x[15]     c1        315
    x[15]     c2        889
    x[15]     OBJ       -860
    x[16]     c3        179
    x[16]     c4        206
    x[16]     c5        967
    x[16]     c6        585
    x[16]     c7        549
    x[16]     c1        949
    x[16]     c2        595
    x[16]     OBJ       -643
    x[17]     c3        639
    x[17]     c4        14
    x[17]     c5        65
    x[17]     c6        804
    x[17]     c7        844
    x[17]     c1        670
    x[17]     c2        914
    x[17]     OBJ       -361
    x[18]     c3        427
    x[18]     c4        447
    x[18]     c5        647
    x[18]     c6        994
    x[18]     c7        811
    x[18]     c1        1000
    x[18]     c2        576
    x[18]     OBJ       -489
    x[19]     c3        665
    x[19]     c4        372
    x[19]     c5        983
    x[19]     c6        607
    x[19]     c7        306
    x[19]     c1        457
    x[19]     c2        312
    x[19]     OBJ       -882
    x[20]     c3        599
    x[20]     c4        816
    x[20]     c5        762
    x[20]     c6        477
    x[20]     c7        5
    x[20]     c1        816
    x[20]     c2        323
    x[20]     OBJ       -565
    x[21]     c3        755
    x[21]     c4        504
    x[21]     c5        384
    x[21]     c6        349
    x[21]     c7        504
    x[21]     c1        357
    x[21]     c2        153
    x[21]     OBJ       -984
    x[22]     c3        774
    x[22]     c4        271
    x[22]     c5        47
    x[22]     c6        357
    x[22]     c7        120
    x[22]     c1        495
    x[22]     c2        888
    x[22]     OBJ       -545
    x[23]     c3        25
    x[23]     c4        342
    x[23]     c5        89
    x[23]     c6        406
    x[23]     c7        491
    x[23]     c1        916
    x[23]     c2        287
    x[23]     OBJ       -297
    x[24]     c3        165
    x[24]     c4        650
    x[24]     c5        885
    x[24]     c6        275
    x[24]     c7        324
    x[24]     c1        852
    x[24]     c2        627
    x[24]     OBJ       -725
    x[25]     c3        129
    x[25]     c4        669
    x[25]     c5        21
    x[25]     c6        522
    x[25]     c7        851
    x[25]     c1        614
    x[25]     c2        888
    x[25]     OBJ       -655
    x[26]     c3        403
    x[26]     c4        658
    x[26]     c5        745
    x[26]     c6        548
    x[26]     c7        850
    x[26]     c1        161
    x[26]     c2        634
    x[26]     OBJ       -1326
    x[27]     c3        49
    x[27]     c4        326
    x[27]     c5        349
    x[27]     c6        337
    x[27]     c7        64
    x[27]     c1        60
    x[27]     c2        424
    x[27]     OBJ       -805
    x[28]     c3        681
    x[28]     c4        976
    x[28]     c5        741
    x[28]     c6        656
    x[28]     c7        418
    x[28]     c1        382
    x[28]     c2        365
    x[28]     OBJ       -1053
    x[29]     c3        443
    x[29]     c4        398
    x[29]     c5        188
    x[29]     c6        10
    x[29]     c7        533
    x[29]     c1        373
    x[29]     c2        374
    x[29]     OBJ       -803
    x[30]     c3        148
    x[30]     c4        902
    x[30]     c5        3
    x[30]     c6        136
    x[30]     c7        450
    x[30]     c1        570
    x[30]     c2        85
    x[30]     OBJ       -773
    x[31]     c3        141
    x[31]     c4        645
    x[31]     c5        526
    x[31]     c6        831
    x[31]     c7        443
    x[31]     c1        182
    x[31]     c2        650
    x[31]     OBJ       -946
    x[32]     c3        484
    x[32]     c4        932
    x[32]     c5        236
    x[32]     c6        666
    x[32]     c7        561
    x[32]     c1        934
    x[32]     c2        265
    x[32]     OBJ       -676
    x[33]     c3        414
    x[33]     c4        868
    x[33]     c5        974
    x[33]     c6        881
    x[33]     c7        693
    x[33]     c1        129
    x[33]     c2        711
    x[33]     OBJ       -940
    x[34]     c3        868
    x[34]     c4        6
    x[34]     c5        270
    x[34]     c6        373
    x[34]     c7        112
    x[34]     c1        542
    x[34]     c2        204
    x[34]     OBJ       -1029
    x[35]     c3        86
    x[35]     c4        533
    x[35]     c5        366
    x[35]     c6        172
    x[35]     c7        788
    x[35]     c1        767
    x[35]     c2        816
    x[35]     OBJ       -433
    x[36]     c3        295
    x[36]     c4        719
    x[36]     c5        292
    x[36]     c6        185
    x[36]     c7        647
    x[36]     c1        964
    x[36]     c2        595
    x[36]     OBJ       -341
    x[37]     c3        484
    x[37]     c4        241
    x[37]     c5        441
    x[37]     c6        876
    x[37]     c7        281
    x[37]     c1        896
    x[37]     c2        111
    x[37]     OBJ       -799
    x[38]     c3        38
    x[38]     c4        778
    x[38]     c5        594
    x[38]     c6        494
    x[38]     c7        754
    x[38]     c1        350
    x[38]     c2        707
    x[38]     OBJ       -1045
    x[39]     c3        419
    x[39]     c4        244
    x[39]     c5        490
    x[39]     c6        211
    x[39]     c7        385
    x[39]     c1        178
    x[39]     c2        774
    x[39]     OBJ       -782
    x[40]     c3        833
    x[40]     c4        185
    x[40]     c5        807
    x[40]     c6        697
    x[40]     c7        221
    x[40]     c1        557
    x[40]     c2        138
    x[40]     OBJ       -1087
    x[41]     c3        706
    x[41]     c4        63
    x[41]     c5        326
    x[41]     c6        648
    x[41]     c7        576
    x[41]     c1        975
    x[41]     c2        687
    x[41]     OBJ       -317
    x[42]     c3        70
    x[42]     c4        369
    x[42]     c5        546
    x[42]     c6        224
    x[42]     c7        368
    x[42]     c1        70
    x[42]     c2        131
    x[42]     OBJ       -860
    x[43]     c3        481
    x[43]     c4        152
    x[43]     c5        687
    x[43]     c6        826
    x[43]     c7        462
    x[43]     c1        226
    x[43]     c2        279
    x[43]     OBJ       -1185
    x[44]     c3        689
    x[44]     c4        114
    x[44]     c5        707
    x[44]     c6        585
    x[44]     c7        869
    x[44]     c1        356
    x[44]     c2        775
    x[44]     OBJ       -717
    x[45]     c3        914
    x[45]     c4        541
    x[45]     c5        593
    x[45]     c6        233
    x[45]     c7        785
    x[45]     c1        404
    x[45]     c2        191
    x[45]     OBJ       -1359
    x[46]     c3        218
    x[46]     c4        202
    x[46]     c5        230
    x[46]     c6        49
    x[46]     c7        664
    x[46]     c1        79
    x[46]     c2        217
    x[46]     OBJ       -734
    x[47]     c3        803
    x[47]     c4        129
    x[47]     c5        712
    x[47]     c6        819
    x[47]     c7        701
    x[47]     c1        833
    x[47]     c2        181
    x[47]     OBJ       -944
    x[48]     c3        867
    x[48]     c4        735
    x[48]     c5        360
    x[48]     c6        200
    x[48]     c7        542
    x[48]     c1        616
    x[48]     c2        750
    x[48]     OBJ       -669
    x[49]     c3        416
    x[49]     c4        485
    x[49]     c5        475
    x[49]     c6        659
    x[49]     c7        176
    x[49]     c1        575
    x[49]     c2        890
    x[49]     OBJ       -506
    x[50]     c3        47
    x[50]     c4        109
    x[50]     c5        261
    x[50]     c6        61
    x[50]     c7        988
    x[50]     c1        987
    x[50]     c2        776
    x[50]     OBJ       -342
    x[51]     c3        120
    x[51]     c4        954
    x[51]     c5        522
    x[51]     c6        644
    x[51]     c7        516
    x[51]     c1        340
    x[51]     c2        484
    x[51]     OBJ       -874
    x[52]     c3        290
    x[52]     c4        307
    x[52]     c5        314
    x[52]     c6        677
    x[52]     c7        903
    x[52]     c1        794
    x[52]     c2        655
    x[52]     OBJ       -478
    x[53]     c3        781
    x[53]     c4        375
    x[53]     c5        543
    x[53]     c6        723
    x[53]     c7        35
    x[53]     c1        321
    x[53]     c2        662
    x[53]     OBJ       -709
    x[54]     c3        459
    x[54]     c4        460
    x[54]     c5        31
    x[54]     c6        955
    x[54]     c7        445
    x[54]     c1        337
    x[54]     c2        662
    x[54]     OBJ       -1059
    x[55]     c3        520
    x[55]     c4        397
    x[55]     c5        445
    x[55]     c6        163
    x[55]     c7        833
    x[55]     c1        580
    x[55]     c2        995
    x[55]     OBJ       -317
    x[56]     c3        25
    x[56]     c4        779
    x[56]     c5        909
    x[56]     c6        643
    x[56]     c7        997
    x[56]     c1        920
    x[56]     c2        248
    x[56]     OBJ       -970
    x[57]     c3        173
    x[57]     c4        203
    x[57]     c5        670
    x[57]     c6        171
    x[57]     c7        392
    x[57]     c1        425
    x[57]     c2        718
    x[57]     OBJ       -668
    x[58]     c3        911
    x[58]     c4        265
    x[58]     c5        188
    x[58]     c6        132
    x[58]     c7        509
    x[58]     c1        170
    x[58]     c2        321
    x[58]     OBJ       -1208
    x[59]     c3        244
    x[59]     c4        217
    x[59]     c5        483
    x[59]     c6        859
    x[59]     c7        38
    x[59]     c1        955
    x[59]     c2        533
    x[59]     OBJ       -482
    x[60]     c3        618
    x[60]     c4        415
    x[60]     c5        676
    x[60]     c6        390
    x[60]     c7        772
    x[60]     c1        581
    x[60]     c2        391
    x[60]     OBJ       -867
    x[61]     c3        193
    x[61]     c4        705
    x[61]     c5        218
    x[61]     c6        936
    x[61]     c7        764
    x[61]     c1        739
    x[61]     c2        81
    x[61]     OBJ       -917
    x[62]     c3        248
    x[62]     c4        630
    x[62]     c5        919
    x[62]     c6        767
    x[62]     c7        616
    x[62]     c1        622
    x[62]     c2        253
    x[62]     OBJ       -1141
    x[63]     c3        664
    x[63]     c4        485
    x[63]     c5        742
    x[63]     c6        501
    x[63]     c7        764
    x[63]     c1        473
    x[63]     c2        879
    x[63]     OBJ       -585
    x[64]     c3        674
    x[64]     c4        889
    x[64]     c5        751
    x[64]     c6        680
    x[64]     c7        151
    x[64]     c1        789
    x[64]     c2        540
    x[64]     OBJ       -599
    x[65]     c3        452
    x[65]     c4        849
    x[65]     c5        685
    x[65]     c6        403
    x[65]     c7        931
    x[65]     c1        946
    x[65]     c2        959
    x[65]     OBJ       -615
    x[66]     c3        641
    x[66]     c4        958
    x[66]     c5        583
    x[66]     c6        836
    x[66]     c7        609
    x[66]     c1        499
    x[66]     c2        118
    x[66]     OBJ       -1383
    x[67]     c3        457
    x[67]     c4        66
    x[67]     c5        876
    x[67]     c6        447
    x[67]     c7        736
    x[67]     c1        666
    x[67]     c2        989
    x[67]     OBJ       -585
    x[68]     c3        323
    x[68]     c4        175
    x[68]     c5        687
    x[68]     c6        466
    x[68]     c7        248
    x[68]     c1        546
    x[68]     c2        781
    x[68]     OBJ       -630
    x[69]     c3        286
    x[69]     c4        57
    x[69]     c5        592
    x[69]     c6        617
    x[69]     c7        828
    x[69]     c1        630
    x[69]     c2        678
    x[69]     OBJ       -794
    x[70]     c3        434
    x[70]     c4        39
    x[70]     c5        3
    x[70]     c6        879
    x[70]     c7        923
    x[70]     c1        997
    x[70]     c2        787
    x[70]     OBJ       -433
    x[71]     c3        541
    x[71]     c4        234
    x[71]     c5        681
    x[71]     c6        501
    x[71]     c7        776
    x[71]     c1        462
    x[71]     c2        424
    x[71]     OBJ       -792
    x[72]     c3        904
    x[72]     c4        809
    x[72]     c5        643
    x[72]     c6        244
    x[72]     c7        198
    x[72]     c1        750
    x[72]     c2        721
    x[72]     OBJ       -782
    x[73]     c3        866
    x[73]     c4        17
    x[73]     c5        946
    x[73]     c6        468
    x[73]     c7        800
    x[73]     c1        841
    x[73]     c2        623
    x[73]     OBJ       -792
    x[74]     c3        326
    x[74]     c4        4
    x[74]     c5        627
    x[74]     c6        921
    x[74]     c7        238
    x[74]     c1        795
    x[74]     c2        833
    x[74]     OBJ       -448
    x[75]     c3        624
    x[75]     c4        402
    x[75]     c5        352
    x[75]     c6        282
    x[75]     c7        893
    x[75]     c1        2
    x[75]     c2        986
    x[75]     OBJ       -973
    x[76]     c3        445
    x[76]     c4        882
    x[76]     c5        585
    x[76]     c6        147
    x[76]     c7        753
    x[76]     c1        522
    x[76]     c2        141
    x[76]     OBJ       -856
    x[77]     c3        615
    x[77]     c4        336
    x[77]     c5        135
    x[77]     c6        229
    x[77]     c7        102
    x[77]     c1        778
    x[77]     c2        66
    x[77]     OBJ       -664
    x[78]     c3        296
    x[78]     c4        109
    x[78]     c5        255
    x[78]     c6        893
    x[78]     c7        461
    x[78]     c1        42
    x[78]     c2        983
    x[78]     OBJ       -518
    x[79]     c3        600
    x[79]     c4        696
    x[79]     c5        985
    x[79]     c6        261
    x[79]     c7        654
    x[79]     c1        714
    x[79]     c2        449
    x[79]     OBJ       -1019
    x[80]     c3        614
    x[80]     c4        222
    x[80]     c5        323
    x[80]     c6        61
    x[80]     c7        623
    x[80]     c1        645
    x[80]     c2        654
    x[80]     OBJ       -393
    x[81]     c3        673
    x[81]     c4        805
    x[81]     c5        404
    x[81]     c6        344
    x[81]     c7        383
    x[81]     c1        855
    x[81]     c2        458
    x[81]     OBJ       -619
    x[82]     c3        923
    x[82]     c4        893
    x[82]     c5        328
    x[82]     c6        680
    x[82]     c7        569
    x[82]     c1        396
    x[82]     c2        675
    x[82]     OBJ       -1002
    x[83]     c3        149
    x[83]     c4        212
    x[83]     c5        473
    x[83]     c6        100
    x[83]     c7        736
    x[83]     c1        768
    x[83]     c2        515
    x[83]     OBJ       -656
    x[84]     c3        493
    x[84]     c4        768
    x[84]     c5        79
    x[84]     c6        685
    x[84]     c7        412
    x[84]     c1        392
    x[84]     c2        718
    x[84]     OBJ       -605
    x[85]     c3        773
    x[85]     c4        389
    x[85]     c5        803
    x[85]     c6        805
    x[85]     c7        602
    x[85]     c1        141
    x[85]     c2        486
    x[85]     OBJ       -959
    x[86]     c3        604
    x[86]     c4        15
    x[86]     c5        928
    x[86]     c6        869
    x[86]     c7        224
    x[86]     c1        544
    x[86]     c2        881
    x[86]     OBJ       -806
    x[87]     c3        811
    x[87]     c4        848
    x[87]     c5        525
    x[87]     c6        385
    x[87]     c7        175
    x[87]     c1        847
    x[87]     c2        726
    x[87]     OBJ       -421
    x[88]     c3        520
    x[88]     c4        968
    x[88]     c5        957
    x[88]     c6        159
    x[88]     c7        315
    x[88]     c1        263
    x[88]     c2        386
    x[88]     OBJ       -1309
    x[89]     c3        343
    x[89]     c4        551
    x[89]     c5        147
    x[89]     c6        296
    x[89]     c7        432
    x[89]     c1        325
    x[89]     c2        796
    x[89]     OBJ       -555
    x[90]     c3        304
    x[90]     c4        367
    x[90]     c5        163
    x[90]     c6        355
    x[90]     c7        315
    x[90]     c1        227
    x[90]     c2        229
    x[90]     OBJ       -1032
    x[91]     c3        147
    x[91]     c4        456
    x[91]     c5        940
    x[91]     c6        535
    x[91]     c7        971
    x[91]     c1        765
    x[91]     c2        398
    x[91]     OBJ       -914
    x[92]     c3        576
    x[92]     c4        590
    x[92]     c5        710
    x[92]     c6        610
    x[92]     c7        224
    x[92]     c1        128
    x[92]     c2        335
    x[92]     OBJ       -1324
    x[93]     c3        444
    x[93]     c4        553
    x[93]     c5        373
    x[93]     c6        856
    x[93]     c7        492
    x[93]     c1        10
    x[93]     c2        624
    x[93]     OBJ       -885
    x[94]     c3        349
    x[94]     c4        946
    x[94]     c5        346
    x[94]     c6        103
    x[94]     c7        34
    x[94]     c1        973
    x[94]     c2        283
    x[94]     OBJ       -356
    x[95]     c3        941
    x[95]     c4        672
    x[95]     c5        279
    x[95]     c6        203
    x[95]     c7        355
    x[95]     c1        162
    x[95]     c2        182
    x[95]     OBJ       -1105
    x[96]     c3        809
    x[96]     c4        241
    x[96]     c5        320
    x[96]     c6        120
    x[96]     c7        433
    x[96]     c1        743
    x[96]     c2        589
    x[96]     OBJ       -535
    x[97]     c3        639
    x[97]     c4        576
    x[97]     c5        942
    x[97]     c6        584
    x[97]     c7        34
    x[97]     c1        208
    x[97]     c2        153
    x[97]     OBJ       -1203
    x[98]     c3        361
    x[98]     c4        517
    x[98]     c5        235
    x[98]     c6        289
    x[98]     c7        408
    x[98]     c1        223
    x[98]     c2        945
    x[98]     OBJ       -444
    x[99]     c3        366
    x[99]     c4        640
    x[99]     c5        426
    x[99]     c6        50
    x[99]     c7        586
    x[99]     c1        981
    x[99]     c2        272
    x[99]     OBJ       -609
    x[100]    c3        690
    x[100]    c4        822
    x[100]    c5        252
    x[100]    c6        744
    x[100]    c7        295
    x[100]    c1        143
    x[100]    c2        849
    x[100]    OBJ       -1072
RHS
    rhs       c3        23993
    rhs       c4        23134
    rhs       c5        25264
    rhs       c6        24281
    rhs       c7        25873
    rhs       c1        2632
    rhs       c2        2677
RANGES
BOUNDS
 LO bounds    ss[1]     0
 PL bounds    ss[1]
 LO bounds    ss[2]     0
 PL bounds    ss[2]
 MI bounds    s[1]
 UP bounds    s[1]      0
 MI bounds    s[2]
 UP bounds    s[2]      0
 MI bounds    s[3]
 UP bounds    s[3]      0
 MI bounds    s[4]
 UP bounds    s[4]      0
 MI bounds    s[5]
 UP bounds    s[5]      0
 BV bounds    x[1]
 BV bounds    x[2]
 BV bounds    x[3]
 BV bounds    x[4]
 BV bounds    x[5]
 BV bounds    x[6]
 BV bounds    x[7]
 BV bounds    x[8]
 BV bounds    x[9]
 BV bounds    x[10]
 BV bounds    x[11]
 BV bounds    x[12]
 BV bounds    x[13]
 BV bounds    x[14]
 BV bounds    x[15]
 BV bounds    x[16]
 BV bounds    x[17]
 BV bounds    x[18]
 BV bounds    x[19]
 BV bounds    x[20]
 BV bounds    x[21]
 BV bounds    x[22]
 BV bounds    x[23]
 BV bounds    x[24]
 BV bounds    x[25]
 BV bounds    x[26]
 BV bounds    x[27]
 BV bounds    x[28]
 BV bounds    x[29]
 BV bounds    x[30]
 BV bounds    x[31]
 BV bounds    x[32]
 BV bounds    x[33]
 BV bounds    x[34]
 BV bounds    x[35]
 BV bounds    x[36]
 BV bounds    x[37]
 BV bounds    x[38]
 BV bounds    x[39]
 BV bounds    x[40]
 BV bounds    x[41]
 BV bounds    x[42]
 BV bounds    x[43]
 BV bounds    x[44]
 BV bounds    x[45]
 BV bounds    x[46]
 BV bounds    x[47]
 BV bounds    x[48]
 BV bounds    x[49]
 BV bounds    x[50]
 BV bounds    x[51]
 BV bounds    x[52]
 BV bounds    x[53]
 BV bounds    x[54]
 BV bounds    x[55]
 BV bounds    x[56]
 BV bounds    x[57]
 BV bounds    x[58]
 BV bounds    x[59]
 BV bounds    x[60]
 BV bounds    x[61]
 BV bounds    x[62]
 BV bounds    x[63]
 BV bounds    x[64]
 BV bounds    x[65]
 BV bounds    x[66]
 BV bounds    x[67]
 BV bounds    x[68]
 BV bounds    x[69]
 BV bounds    x[70]
 BV bounds    x[71]
 BV bounds    x[72]
 BV bounds    x[73]
 BV bounds    x[74]
 BV bounds    x[75]
 BV bounds    x[76]
 BV bounds    x[77]
 BV bounds    x[78]
 BV bounds    x[79]
 BV bounds    x[80]
 BV bounds    x[81]
 BV bounds    x[82]
 BV bounds    x[83]
 BV bounds    x[84]
 BV bounds    x[85]
 BV bounds    x[86]
 BV bounds    x[87]
 BV bounds    x[88]
 BV bounds    x[89]
 BV bounds    x[90]
 BV bounds    x[91]
 BV bounds    x[92]
 BV bounds    x[93]
 BV bounds    x[94]
 BV bounds    x[95]
 BV bounds    x[96]
 BV bounds    x[97]
 BV bounds    x[98]
 BV bounds    x[99]
 BV bounds    x[100]
ENDATA
